c t wmc
c file mc2023_track2_125.cnf
p cnf 90 234
15 -46 88 0
-8 -76 29 0
58 -63 -7 0
-8 35 70 0
27 -90 13 0
-23 50 -60 0
52 64 -50 0
-68 25 -34 0
-17 50 -44 0
-32 25 -49 0
-78 55 -29 0
75 4 -33 0
2 39 -16 0
54 -80 -66 0
86 -85 -1 0
-33 24 -44 0
-1 -45 -86 0
2 -49 -40 0
-73 -77 -7 0
-89 88 43 0
-49 85 -81 0
-88 38 -53 0
-16 34 -89 0
-7 -72 9 0
-50 8 88 0
37 -45 -71 0
-68 55 -45 0
54 -68 87 0
79 -44 18 0
90 -23 -9 0
-26 -41 90 0
-33 41 -13 0
32 -63 -38 0
9 14 90 0
-77 28 37 0
-90 -75 31 0
-8 -52 -6 0
61 -51 -56 0
-70 -17 59 0
-82 -46 -71 0
-6 -43 -73 0
-44 80 -16 0
27 -80 12 0
22 -34 -16 0
86 59 25 0
63 38 -37 0
-56 -32 24 0
20 -45 30 0
-89 -1 23 0
-29 89 -76 0
60 52 58 0
-63 -87 31 0
1 2 48 0
52 -3 33 0
65 5 -86 0
-35 -43 -72 0
59 -47 -67 0
71 75 52 0
-50 -73 -87 0
-40 59 30 0
25 20 78 0
-52 72 -62 0
-72 88 13 0
19 -63 73 0
-60 -11 -51 0
-37 63 -23 0
-38 -33 82 0
63 9 89 0
88 -53 37 0
43 62 -26 0
-44 -63 86 0
-69 -68 -77 0
-18 -25 -33 0
75 66 40 0
-77 -76 -3 0
27 -68 31 0
-39 75 -87 0
7 -79 -27 0
-26 44 13 0
-24 -39 -8 0
65 -71 42 0
-43 28 39 0
23 38 13 0
-9 -36 -66 0
23 -83 -80 0
-66 11 -78 0
78 90 50 0
-42 -61 41 0
73 -36 -89 0
-65 -33 -50 0
-80 -69 16 0
-45 52 76 0
-65 -23 86 0
27 48 58 0
-7 -68 33 0
-31 42 -11 0
-46 78 40 0
-62 -41 -7 0
45 47 41 0
-68 -51 -81 0
-12 -65 76 0
8 42 -47 0
59 12 -66 0
-49 -23 53 0
48 29 -64 0
78 5 -90 0
-52 -7 -16 0
5 90 61 0
-41 88 -68 0
-24 -70 67 0
-34 -80 -60 0
85 47 -68 0
-16 -21 85 0
-70 -68 24 0
-48 -3 -34 0
66 18 21 0
-60 -51 55 0
45 88 74 0
-12 -80 -3 0
-33 22 -3 0
20 -57 -47 0
9 -10 89 0
28 35 63 0
24 90 -59 0
-64 32 41 0
-88 67 11 0
-72 11 -20 0
-45 -27 60 0
56 -76 4 0
28 71 27 0
86 44 15 0
-71 -15 24 0
-70 74 68 0
62 86 -7 0
40 -66 59 0
-65 58 -34 0
57 52 77 0
-76 -7 39 0
55 -12 -39 0
-39 52 -72 0
3 -41 -84 0
12 -37 63 0
6 -77 -84 0
-83 -84 14 0
-60 -89 59 0
-16 -30 -1 0
46 49 78 0
34 28 13 0
40 31 39 0
-63 -87 73 0
59 -72 -85 0
-24 -60 -12 0
-64 65 80 0
74 -18 -19 0
-17 26 -47 0
15 -54 2 0
6 78 -56 0
75 -33 7 0
-66 -42 41 0
32 -17 41 0
62 82 24 0
31 -4 -35 0
1 46 -64 0
-88 -43 -45 0
-17 -67 66 0
-3 21 -4 0
86 -27 -40 0
-60 -84 50 0
-89 -17 -11 0
-76 23 22 0
-77 64 -41 0
5 45 22 0
-85 78 58 0
-46 9 -26 0
-34 -27 69 0
61 -79 -32 0
-60 -70 -8 0
-69 5 -26 0
-60 72 -90 0
88 -34 6 0
-64 41 -30 0
-52 -7 -18 0
-50 -56 20 0
88 -69 -45 0
-79 61 72 0
70 -28 66 0
-67 -1 -51 0
12 58 55 0
70 -85 -90 0
13 -42 24 0
19 -80 -2 0
46 -40 -84 0
7 -63 -54 0
46 10 50 0
-49 72 -82 0
37 36 -64 0
4 -2 -13 0
-68 5 2 0
88 32 82 0
5 -22 -62 0
-57 9 77 0
-39 57 -38 0
-3 43 88 0
-58 74 -1 0
19 58 -7 0
5 86 71 0
-52 80 -7 0
-47 -51 -59 0
55 12 59 0
-14 -79 31 0
-61 25 41 0
73 31 89 0
31 64 8 0
38 -29 -26 0
41 -44 -4 0
63 84 -6 0
62 73 -25 0
-42 -4 41 0
-77 38 55 0
-17 24 -74 0
-15 78 -33 0
36 -44 56 0
61 -6 48 0
30 32 88 0
-71 -41 16 0
-49 86 -14 0
-81 -62 -54 0
81 21 -68 0
54 -79 -80 0
52 -19 70 0
11 82 -61 0
36 14 15 0
-77 86 65 0
-77 -88 85 0
c p weight 14 0.61103606 0
c p weight -14 0.38896394 0
c p weight 68 0.69790084 0
c p weight -68 0.30209916 0
c p weight 1 1 0
c p weight -1 1 0
c p weight 2 1 0
c p weight -2 1 0
c p weight 3 1 0
c p weight -3 1 0
c p weight 4 1 0
c p weight -4 1 0
c p weight 5 1 0
c p weight -5 1 0
c p weight 6 1 0
c p weight -6 1 0
c p weight 7 1 0
c p weight -7 1 0
c p weight 8 1 0
c p weight -8 1 0
c p weight 9 1 0
c p weight -9 1 0
c p weight 10 1 0
c p weight -10 1 0
c p weight 11 1 0
c p weight -11 1 0
c p weight 12 1 0
c p weight -12 1 0
c p weight 13 1 0
c p weight -13 1 0
c p weight 15 1 0
c p weight -15 1 0
c p weight 16 1 0
c p weight -16 1 0
c p weight 17 1 0
c p weight -17 1 0
c p weight 18 1 0
c p weight -18 1 0
c p weight 19 1 0
c p weight -19 1 0
c p weight 20 1 0
c p weight -20 1 0
c p weight 21 1 0
c p weight -21 1 0
c p weight 22 1 0
c p weight -22 1 0
c p weight 23 1 0
c p weight -23 1 0
c p weight 24 1 0
c p weight -24 1 0
c p weight 25 1 0
c p weight -25 1 0
c p weight 26 1 0
c p weight -26 1 0
c p weight 27 1 0
c p weight -27 1 0
c p weight 28 1 0
c p weight -28 1 0
c p weight 29 1 0
c p weight -29 1 0
c p weight 30 1 0
c p weight -30 1 0
c p weight 31 1 0
c p weight -31 1 0
c p weight 32 1 0
c p weight -32 1 0
c p weight 33 1 0
c p weight -33 1 0
c p weight 34 1 0
c p weight -34 1 0
c p weight 35 1 0
c p weight -35 1 0
c p weight 36 1 0
c p weight -36 1 0
c p weight 37 1 0
c p weight -37 1 0
c p weight 38 1 0
c p weight -38 1 0
c p weight 39 1 0
c p weight -39 1 0
c p weight 40 1 0
c p weight -40 1 0
c p weight 41 1 0
c p weight -41 1 0
c p weight 42 1 0
c p weight -42 1 0
c p weight 43 1 0
c p weight -43 1 0
c p weight 44 1 0
c p weight -44 1 0
c p weight 45 1 0
c p weight -45 1 0
c p weight 46 1 0
c p weight -46 1 0
c p weight 47 1 0
c p weight -47 1 0
c p weight 48 1 0
c p weight -48 1 0
c p weight 49 1 0
c p weight -49 1 0
c p weight 50 1 0
c p weight -50 1 0
c p weight 51 1 0
c p weight -51 1 0
c p weight 52 1 0
c p weight -52 1 0
c p weight 53 1 0
c p weight -53 1 0
c p weight 54 1 0
c p weight -54 1 0
c p weight 55 1 0
c p weight -55 1 0
c p weight 56 1 0
c p weight -56 1 0
c p weight 57 1 0
c p weight -57 1 0
c p weight 58 1 0
c p weight -58 1 0
c p weight 59 1 0
c p weight -59 1 0
c p weight 60 1 0
c p weight -60 1 0
c p weight 61 1 0
c p weight -61 1 0
c p weight 62 1 0
c p weight -62 1 0
c p weight 63 1 0
c p weight -63 1 0
c p weight 64 1 0
c p weight -64 1 0
c p weight 65 1 0
c p weight -65 1 0
c p weight 66 1 0
c p weight -66 1 0
c p weight 67 1 0
c p weight -67 1 0
c p weight 69 1 0
c p weight -69 1 0
c p weight 70 1 0
c p weight -70 1 0
c p weight 71 1 0
c p weight -71 1 0
c p weight 72 1 0
c p weight -72 1 0
c p weight 73 1 0
c p weight -73 1 0
c p weight 74 1 0
c p weight -74 1 0
c p weight 75 1 0
c p weight -75 1 0
c p weight 76 1 0
c p weight -76 1 0
c p weight 77 1 0
c p weight -77 1 0
c p weight 78 1 0
c p weight -78 1 0
c p weight 79 1 0
c p weight -79 1 0
c p weight 80 1 0
c p weight -80 1 0
c p weight 81 1 0
c p weight -81 1 0
c p weight 82 1 0
c p weight -82 1 0
c p weight 83 1 0
c p weight -83 1 0
c p weight 84 1 0
c p weight -84 1 0
c p weight 85 1 0
c p weight -85 1 0
c p weight 86 1 0
c p weight -86 1 0
c p weight 87 1 0
c p weight -87 1 0
c p weight 88 1 0
c p weight -88 1 0
c p weight 89 1 0
c p weight -89 1 0
c p weight 90 1 0
c p weight -90 1 0
